Version identifier: 20.1.0.0 | 2020-11-10 | 9bedb6d68
Tried aggregator 2 times.
MIP Presolve eliminated 1345 rows and 793 columns.
MIP Presolve modified 2578 coefficients.
Aggregator did 145 substitutions.
Reduced MIP has 1066 rows, 869 columns, and 3389 nonzeros.
Reduced MIP has 225 binaries, 644 generals, 0 SOSs, and 0 indicators.
Presolve time = 0.02 sec. (5.60 ticks)
Found incumbent of value 61.000000 after 0.03 sec. (9.58 ticks)
Probing fixed 30 vars, tightened 281 bounds.
Probing time = 0.00 sec. (1.01 ticks)
Tried aggregator 1 time.
Detecting symmetries...
MIP Presolve eliminated 450 rows and 30 columns.
MIP Presolve modified 50 coefficients.
Reduced MIP has 616 rows, 839 columns, and 2009 nonzeros.
Reduced MIP has 326 binaries, 513 generals, 0 SOSs, and 0 indicators.
Presolve time = 0.01 sec. (2.32 ticks)
Probing time = 0.00 sec. (0.16 ticks)
Clique table members: 1.
MIP emphasis: balance optimality and feasibility.
MIP search method: dynamic search.
Parallel mode: deterministic, using up to 24 threads.
Root relaxation solution time = 0.00 sec. (1.41 ticks)

        Nodes                                         Cuts/
   Node  Left     Objective  IInf  Best Integer    Best Bound    ItCnt     Gap

*     0+    0                           61.0000        0.0000           100.00%
      0     0        0.0000    37       61.0000        0.0000      153  100.00%
*     0+    0                           14.0000        0.0000           100.00%
      0     0        0.2571    71       14.0000     Cuts: 157      370   98.16%
*     0+    0                           10.0000        0.2571            97.43%
      0     0        1.3788   245       10.0000      Cuts: 88      547   86.21%
      0     0        1.6842   248       10.0000      Cuts: 84      620   83.16%
      0     0        1.6842   250       10.0000      Cuts: 46      652   83.16%
      0     0        1.7778   214       10.0000      Cuts: 39      697   82.22%
      0     0        1.8261   234       10.0000      Cuts: 76      765   81.74%
      0     0        1.8261   247       10.0000      Cuts: 52      800   81.74%
*     0+    0                            8.0000        1.8261            77.17%
      0     0        cutoff              8.0000        8.0000      800    0.00%
Elapsed time = 0.19 sec. (91.83 ticks, tree = 0.01 MB, solutions = 4)

Implied bound cuts applied:  20
Flow cuts applied:  1
Mixed integer rounding cuts applied:  10
Zero-half cuts applied:  55
Lift and project cuts applied:  2
Gomory fractional cuts applied:  11

Root node processing (before b&c):
  Real time             =    0.19 sec. (91.93 ticks)
Parallel b&c, 24 threads:
  Real time             =    0.00 sec. (0.00 ticks)
  Sync time (average)   =    0.00 sec.
  Wait time (average)   =    0.00 sec.
                          ------------
Total (root+branch&cut) =    0.19 sec. (91.93 ticks)

Solution status = Optimal
Solution LB = 8
Solution UB = 8
Runtime = 0.201072 seconds
	Command being timed: "/home/min/git_repos/CS598MEBProject/CNT-ILP/build/cnt -s 2 ./output/k6_n30/simC_c1_k6_n30_u3_s3_del02.input-left.cnp"
	User time (seconds): 1.39
	System time (seconds): 0.04
	Percent of CPU this job got: 590%
	Elapsed (wall clock) time (h:mm:ss or m:ss): 0:00.24
	Average shared text size (kbytes): 0
	Average unshared data size (kbytes): 0
	Average stack size (kbytes): 0
	Average total size (kbytes): 0
	Maximum resident set size (kbytes): 64696
	Average resident set size (kbytes): 0
	Major (requiring I/O) page faults: 0
	Minor (reclaiming a frame) page faults: 13290
	Voluntary context switches: 2678
	Involuntary context switches: 263
	Swaps: 0
	File system inputs: 0
	File system outputs: 16
	Socket messages sent: 0
	Socket messages received: 0
	Signals delivered: 0
	Page size (bytes): 4096
	Exit status: 0
